(declare-fun IN_0 () Real)
(declare-fun x_0 () Real)
(declare-fun return () Real)
(assert (= x_0 IN_0))
(assert (= return (- (+ (- (+ 1 (* 0.5 x_0)) (* (* 0.125 x_0) x_0)) (* (* (* 0.0625 x_0) x_0) x_0)) (* (* (* (* 0.0390625 x_0) x_0) x_0) x_0))))
(assert (and (>= IN_0 0.0) (< IN_0 1.0)))
(assert (not (and (>= return 0) (< return 1.399))))
(check-sat)
(get-model)